NAME : a280
COMMENT : Tour length 3287
TYPE : TOUR
DIMENSION : 280
TOUR_SECTION
1
280
3
279
278
248
249
250
251
246
239
238
237
232
233
234
235
236
231
245
240
241
244
247
230
229
228
227
226
225
224
223
222
221
220
219
218
215
216
217
213
214
211
212
207
208
209
210
206
205
204
203
202
201
196
195
194
197
198
199
145
146
143
144
200
142
141
148
139
138
137
136
135
134
270
16
271
272
273
274
275
276
277
4
5
6
7
8
9
10
11
12
13
14
15
24
23
25
22
26
27
28
29
31
30
125
124
123
122
121
120
119
157
158
159
160
175
161
162
163
164
165
166
167
168
169
102
103
104
108
110
111
114
115
117
118
61
60
43
42
41
40
39
38
37
36
35
34
33
32
126
127
128
21
130
131
20
19
18
17
133
132
129
154
155
153
156
152
151
177
176
181
180
179
178
150
149
147
140
266
267
268
269
264
265
263
262
261
260
259
258
257
256
255
252
253
254
243
242
2
193
192
191
190
189
188
187
186
185
184
183
182
174
173
106
107
105
170
171
172
101
100
99
98
97
94
95
96
93
92
91
90
109
89
81
80
79
76
75
77
78
74
73
72
71
70
67
66
65
64
63
62
116
86
85
84
87
113
112
88
83
82
68
69
58
57
44
59
45
46
47
48
53
52
51
50
49
54
55
56
1
-1
EOF